p wcnf 170 786 208
34 1 0
27 2 0
14 3 0
71 4 0
61 5 0
208 -1 -14 15 0
208 -1 -15 16 0
208 -1 -16 17 0
208 -1 -17 18 0
208 -1 -18 19 0
208 -1 -19 20 0
208 -1 -20 21 0
208 -1 -21 22 0
208 -1 -22 23 0
208 -1 -23 24 0
208 -1 -24 25 0
208 -1 -25 26 0
208 -1 -26 27 0
208 -1 -27 28 0
208 -1 -29 30 0
208 -1 -30 31 0
208 -1 -31 32 0
208 -1 -32 33 0
208 -1 -33 34 0
208 -1 -34 35 0
208 -1 -35 36 0
208 -1 -36 37 0
208 -1 -37 38 0
208 -2 -47 48 0
208 -2 -48 49 0
208 -2 -49 50 0
208 -2 -50 51 0
208 -2 -51 52 0
208 -2 -52 53 0
208 -2 -53 54 0
208 -2 -54 55 0
208 -2 -55 56 0
208 -2 -56 57 0
208 -2 -57 58 0
208 -2 -58 59 0
208 -2 -59 60 0
208 -2 -60 61 0
208 -2 -62 63 0
208 -2 -63 64 0
208 -2 -64 65 0
208 -2 -65 66 0
208 -2 -66 67 0
208 -2 -67 68 0
208 -2 -68 69 0
208 -2 -69 70 0
208 -2 -70 71 0
208 -3 -80 81 0
208 -3 -81 82 0
208 -3 -82 83 0
208 -3 -83 84 0
208 -3 -84 85 0
208 -3 -85 86 0
208 -3 -86 87 0
208 -3 -87 88 0
208 -3 -88 89 0
208 -3 -89 90 0
208 -3 -90 91 0
208 -3 -91 92 0
208 -3 -92 93 0
208 -3 -93 94 0
208 -3 -95 96 0
208 -3 -96 97 0
208 -3 -97 98 0
208 -3 -98 99 0
208 -3 -99 100 0
208 -3 -100 101 0
208 -3 -101 102 0
208 -3 -102 103 0
208 -3 -103 104 0
208 -4 -113 114 0
208 -4 -114 115 0
208 -4 -115 116 0
208 -4 -116 117 0
208 -4 -117 118 0
208 -4 -118 119 0
208 -4 -119 120 0
208 -4 -120 121 0
208 -4 -121 122 0
208 -4 -122 123 0
208 -4 -123 124 0
208 -4 -124 125 0
208 -4 -125 126 0
208 -4 -126 127 0
208 -4 -128 129 0
208 -4 -129 130 0
208 -4 -130 131 0
208 -4 -131 132 0
208 -4 -132 133 0
208 -4 -133 134 0
208 -4 -134 135 0
208 -4 -135 136 0
208 -4 -136 137 0
208 -5 -146 147 0
208 -5 -147 148 0
208 -5 -148 149 0
208 -5 -149 150 0
208 -5 -150 151 0
208 -5 -151 152 0
208 -5 -152 153 0
208 -5 -153 154 0
208 -5 -154 155 0
208 -5 -155 156 0
208 -5 -156 157 0
208 -5 -157 158 0
208 -5 -158 159 0
208 -5 -159 160 0
208 -5 -161 162 0
208 -5 -162 163 0
208 -5 -163 164 0
208 -5 -164 165 0
208 -5 -165 166 0
208 -5 -166 167 0
208 -5 -167 168 0
208 -5 -168 169 0
208 -5 -169 170 0
208 -1 -2 7 40 0
208 -1 -2 -7 -62 0
208 -1 -2 -7 -63 0
208 -1 -2 -40 -29 0
208 -1 -2 -40 -30 0
208 -1 -2 -40 -31 0
208 -1 -2 -7 29 -64 0
208 -1 -2 -40 62 -32 0
208 -1 -2 -7 30 -65 0
208 -1 -2 -40 63 -33 0
208 -1 -2 -7 31 -66 0
208 -1 -2 -40 64 -34 0
208 -1 -2 -7 32 -67 0
208 -1 -2 -40 65 -35 0
208 -1 -2 -7 33 -68 0
208 -1 -2 -40 66 -36 0
208 -1 -2 -7 34 -69 0
208 -1 -2 -40 67 -37 0
208 -1 -2 -7 35 -70 0
208 -1 -2 -40 68 -38 0
208 -1 -2 -7 36 -71 0
208 -1 -2 39 7 40 0
208 -1 -2 -39 -14 0
208 -1 -2 -39 -15 0
208 -1 -2 -39 -16 0
208 -1 -2 -39 -17 0
208 -1 -2 -39 -18 0
208 -1 -2 -39 -19 0
208 -1 -2 -39 -20 0
208 -1 -2 -7 -62 0
208 -1 -2 -7 -63 0
208 -1 -2 -40 -29 0
208 -1 -2 -40 -30 0
208 -1 -2 -40 -31 0
208 -1 -2 -7 29 -64 0
208 -1 -2 -40 62 -32 0
208 -1 -2 -7 30 -65 0
208 -1 -2 -40 63 -33 0
208 -1 -2 -7 31 -66 0
208 -1 -2 -40 64 -34 0
208 -1 -2 -7 32 -67 0
208 -1 -2 -40 65 -35 0
208 -1 -2 -7 33 -68 0
208 -1 -2 -40 66 -36 0
208 -1 -2 -7 34 -69 0
208 -1 -2 -40 67 -37 0
208 -1 -2 -7 35 -70 0
208 -1 -2 -40 68 -38 0
208 -1 -2 -7 36 -71 0
208 -1 -3 9 73 0
208 -1 -3 -9 -95 0
208 -1 -3 -9 -96 0
208 -1 -3 -73 -29 0
208 -1 -3 -9 29 -97 0
208 -1 -3 -73 95 -30 0
208 -1 -3 -9 30 -98 0
208 -1 -3 -73 96 -31 0
208 -1 -3 -9 31 -99 0
208 -1 -3 -73 97 -32 0
208 -1 -3 -9 32 -100 0
208 -1 -3 -73 98 -33 0
208 -1 -3 -9 33 -101 0
208 -1 -3 -73 99 -34 0
208 -1 -3 -9 34 -102 0
208 -1 -3 -73 100 -35 0
208 -1 -3 -9 35 -103 0
208 -1 -3 -73 101 -36 0
208 -1 -3 -9 36 -104 0
208 -1 -3 -73 102 -37 0
208 -1 -3 72 9 73 0
208 -1 -3 -72 -14 0
208 -1 -3 -72 -15 0
208 -1 -3 -72 -16 0
208 -1 -3 -72 -17 0
208 -1 -3 -72 -18 0
208 -1 -3 -72 -19 0
208 -1 -3 -72 -20 0
208 -1 -3 -72 -21 0
208 -1 -3 -72 -22 0
208 -1 -3 -9 -95 0
208 -1 -3 -9 -96 0
208 -1 -3 -73 -29 0
208 -1 -3 -9 29 -97 0
208 -1 -3 -73 95 -30 0
208 -1 -3 -9 30 -98 0
208 -1 -3 -73 96 -31 0
208 -1 -3 -9 31 -99 0
208 -1 -3 -73 97 -32 0
208 -1 -3 -9 32 -100 0
208 -1 -3 -73 98 -33 0
208 -1 -3 -9 33 -101 0
208 -1 -3 -73 99 -34 0
208 -1 -3 -9 34 -102 0
208 -1 -3 -73 100 -35 0
208 -1 -3 -9 35 -103 0
208 -1 -3 -73 101 -36 0
208 -1 -3 -9 36 -104 0
208 -1 -3 -73 102 -37 0
208 -1 -4 11 106 0
208 -1 -4 -11 -128 0
208 -1 -4 -11 -129 0
208 -1 -4 -106 -29 0
208 -1 -4 -106 -30 0
208 -1 -4 -106 -31 0
208 -1 -4 -11 29 -130 0
208 -1 -4 -106 128 -32 0
208 -1 -4 -11 30 -131 0
208 -1 -4 -106 129 -33 0
208 -1 -4 -11 31 -132 0
208 -1 -4 -106 130 -34 0
208 -1 -4 -11 32 -133 0
208 -1 -4 -106 131 -35 0
208 -1 -4 -11 33 -134 0
208 -1 -4 -106 132 -36 0
208 -1 -4 -11 34 -135 0
208 -1 -4 -106 133 -37 0
208 -1 -4 -11 35 -136 0
208 -1 -4 -106 134 -38 0
208 -1 -4 -11 36 -137 0
208 -1 -4 105 11 106 0
208 -1 -4 -105 -14 0
208 -1 -4 -105 -15 0
208 -1 -4 -105 -16 0
208 -1 -4 -105 -17 0
208 -1 -4 -105 -18 0
208 -1 -4 -105 -19 0
208 -1 -4 -105 -20 0
208 -1 -4 -105 -21 0
208 -1 -4 -11 -128 0
208 -1 -4 -11 -129 0
208 -1 -4 -106 -29 0
208 -1 -4 -106 -30 0
208 -1 -4 -106 -31 0
208 -1 -4 -11 29 -130 0
208 -1 -4 -106 128 -32 0
208 -1 -4 -11 30 -131 0
208 -1 -4 -106 129 -33 0
208 -1 -4 -11 31 -132 0
208 -1 -4 -106 130 -34 0
208 -1 -4 -11 32 -133 0
208 -1 -4 -106 131 -35 0
208 -1 -4 -11 33 -134 0
208 -1 -4 -106 132 -36 0
208 -1 -4 -11 34 -135 0
208 -1 -4 -106 133 -37 0
208 -1 -4 -11 35 -136 0
208 -1 -4 -106 134 -38 0
208 -1 -4 -11 36 -137 0
208 -1 -5 13 139 0
208 -1 -5 -13 -161 0
208 -1 -5 -13 -162 0
208 -1 -5 -139 -29 0
208 -1 -5 -139 -30 0
208 -1 -5 -13 29 -163 0
208 -1 -5 -139 161 -31 0
208 -1 -5 -13 30 -164 0
208 -1 -5 -139 162 -32 0
208 -1 -5 -13 31 -165 0
208 -1 -5 -139 163 -33 0
208 -1 -5 -13 32 -166 0
208 -1 -5 -139 164 -34 0
208 -1 -5 -13 33 -167 0
208 -1 -5 -139 165 -35 0
208 -1 -5 -13 34 -168 0
208 -1 -5 -139 166 -36 0
208 -1 -5 -13 35 -169 0
208 -1 -5 -139 167 -37 0
208 -1 -5 -13 36 -170 0
208 -1 -5 -139 168 -38 0
208 -1 -5 138 13 139 0
208 -1 -5 -138 -14 0
208 -1 -5 -138 -15 0
208 -1 -5 -138 -16 0
208 -1 -5 -138 -17 0
208 -1 -5 -138 -18 0
208 -1 -5 -138 -19 0
208 -1 -5 -138 -20 0
208 -1 -5 -138 -21 0
208 -1 -5 -138 -22 0
208 -1 -5 -138 -23 0
208 -1 -5 -138 -24 0
208 -1 -5 -138 -25 0
208 -1 -5 -13 -161 0
208 -1 -5 -13 -162 0
208 -1 -5 -139 -29 0
208 -1 -5 -139 -30 0
208 -1 -5 -13 29 -163 0
208 -1 -5 -139 161 -31 0
208 -1 -5 -13 30 -164 0
208 -1 -5 -139 162 -32 0
208 -1 -5 -13 31 -165 0
208 -1 -5 -139 163 -33 0
208 -1 -5 -13 32 -166 0
208 -1 -5 -139 164 -34 0
208 -1 -5 -13 33 -167 0
208 -1 -5 -139 165 -35 0
208 -1 -5 -13 34 -168 0
208 -1 -5 -139 166 -36 0
208 -1 -5 -13 35 -169 0
208 -1 -5 -139 167 -37 0
208 -1 -5 -13 36 -170 0
208 -1 -5 -139 168 -38 0
208 -2 -3 42 75 0
208 -2 -3 -42 -95 0
208 -2 -3 -42 -96 0
208 -2 -3 -42 -97 0
208 -2 -3 -75 -62 0
208 -2 -3 -42 62 -98 0
208 -2 -3 -75 95 -63 0
208 -2 -3 -42 63 -99 0
208 -2 -3 -75 96 -64 0
208 -2 -3 -42 64 -100 0
208 -2 -3 -75 97 -65 0
208 -2 -3 -42 65 -101 0
208 -2 -3 -75 98 -66 0
208 -2 -3 -42 66 -102 0
208 -2 -3 -75 99 -67 0
208 -2 -3 -42 67 -103 0
208 -2 -3 -75 100 -68 0
208 -2 -3 -42 68 -104 0
208 -2 -3 -75 101 -69 0
208 -2 -3 41 74 42 75 0
208 -2 -3 -41 -80 0
208 -2 -3 -41 -81 0
208 -2 -3 -41 -82 0
208 -2 -3 -41 -83 0
208 -2 -3 -41 -84 0
208 -2 -3 -41 -85 0
208 -2 -3 -41 -86 0
208 -2 -3 -74 -47 0
208 -2 -3 -74 -48 0
208 -2 -3 -74 -49 0
208 -2 -3 -74 -50 0
208 -2 -3 -74 -51 0
208 -2 -3 -74 -52 0
208 -2 -3 -74 -53 0
208 -2 -3 -74 -54 0
208 -2 -3 -74 -55 0
208 -2 -3 -42 -95 0
208 -2 -3 -42 -96 0
208 -2 -3 -42 -97 0
208 -2 -3 -75 -62 0
208 -2 -3 -41 47 -87 0
208 -2 -3 -74 80 -56 0
208 -2 -3 -41 48 -88 0
208 -2 -3 -74 81 -57 0
208 -2 -3 -41 49 -89 0
208 -2 -3 -74 82 -58 0
208 -2 -3 -41 50 -90 0
208 -2 -3 -74 83 -59 0
208 -2 -3 -41 51 -91 0
208 -2 -3 -74 84 -60 0
208 -2 -3 -41 52 -92 0
208 -2 -3 -74 85 -61 0
208 -2 -3 -41 53 -93 0
208 -2 -3 -41 54 -94 0
208 -2 -3 -42 62 -98 0
208 -2 -3 -75 95 -63 0
208 -2 -3 -42 63 -99 0
208 -2 -3 -75 96 -64 0
208 -2 -3 -42 64 -100 0
208 -2 -3 -75 97 -65 0
208 -2 -3 -42 65 -101 0
208 -2 -3 -75 98 -66 0
208 -2 -3 -42 66 -102 0
208 -2 -3 -75 99 -67 0
208 -2 -3 -42 67 -103 0
208 -2 -3 -75 100 -68 0
208 -2 -3 -42 68 -104 0
208 -2 -3 -75 101 -69 0
208 -2 -4 43 107 44 108 0
208 -2 -4 -43 -113 0
208 -2 -4 -43 -114 0
208 -2 -4 -43 -115 0
208 -2 -4 -43 -116 0
208 -2 -4 -43 -117 0
208 -2 -4 -43 -118 0
208 -2 -4 -43 -119 0
208 -2 -4 -107 -47 0
208 -2 -4 -107 -48 0
208 -2 -4 -107 -49 0
208 -2 -4 -107 -50 0
208 -2 -4 -107 -51 0
208 -2 -4 -107 -52 0
208 -2 -4 -107 -53 0
208 -2 -4 -107 -54 0
208 -2 -4 -44 -128 0
208 -2 -4 -44 -129 0
208 -2 -4 -44 -130 0
208 -2 -4 -108 -62 0
208 -2 -4 -108 -63 0
208 -2 -4 -108 -64 0
208 -2 -4 -43 47 -120 0
208 -2 -4 -107 113 -55 0
208 -2 -4 -43 48 -121 0
208 -2 -4 -107 114 -56 0
208 -2 -4 -43 49 -122 0
208 -2 -4 -107 115 -57 0
208 -2 -4 -43 50 -123 0
208 -2 -4 -107 116 -58 0
208 -2 -4 -43 51 -124 0
208 -2 -4 -107 117 -59 0
208 -2 -4 -43 52 -125 0
208 -2 -4 -107 118 -60 0
208 -2 -4 -43 53 -126 0
208 -2 -4 -107 119 -61 0
208 -2 -4 -43 54 -127 0
208 -2 -4 -44 62 -131 0
208 -2 -4 -108 128 -65 0
208 -2 -4 -44 63 -132 0
208 -2 -4 -108 129 -66 0
208 -2 -4 -44 64 -133 0
208 -2 -4 -108 130 -67 0
208 -2 -4 -44 65 -134 0
208 -2 -4 -108 131 -68 0
208 -2 -4 -44 66 -135 0
208 -2 -4 -108 132 -69 0
208 -2 -4 -44 67 -136 0
208 -2 -4 -108 133 -70 0
208 -2 -4 -44 68 -137 0
208 -2 -4 -108 134 -71 0
208 -2 -5 46 141 0
208 -2 -5 -46 -161 0
208 -2 -5 -46 -162 0
208 -2 -5 -46 -163 0
208 -2 -5 -141 -62 0
208 -2 -5 -141 -63 0
208 -2 -5 -46 62 -164 0
208 -2 -5 -141 161 -64 0
208 -2 -5 -46 63 -165 0
208 -2 -5 -141 162 -65 0
208 -2 -5 -46 64 -166 0
208 -2 -5 -141 163 -66 0
208 -2 -5 -46 65 -167 0
208 -2 -5 -141 164 -67 0
208 -2 -5 -46 66 -168 0
208 -2 -5 -141 165 -68 0
208 -2 -5 -46 67 -169 0
208 -2 -5 -141 166 -69 0
208 -2 -5 -46 68 -170 0
208 -2 -5 -141 167 -70 0
208 -2 -5 45 140 46 141 0
208 -2 -5 -45 -146 0
208 -2 -5 -45 -147 0
208 -2 -5 -45 -148 0
208 -2 -5 -45 -149 0
208 -2 -5 -45 -150 0
208 -2 -5 -45 -151 0
208 -2 -5 -45 -152 0
208 -2 -5 -140 -47 0
208 -2 -5 -140 -48 0
208 -2 -5 -140 -49 0
208 -2 -5 -140 -50 0
208 -2 -5 -140 -51 0
208 -2 -5 -140 -52 0
208 -2 -5 -140 -53 0
208 -2 -5 -140 -54 0
208 -2 -5 -140 -55 0
208 -2 -5 -140 -56 0
208 -2 -5 -140 -57 0
208 -2 -5 -140 -58 0
208 -2 -5 -46 -161 0
208 -2 -5 -46 -162 0
208 -2 -5 -46 -163 0
208 -2 -5 -141 -62 0
208 -2 -5 -141 -63 0
208 -2 -5 -45 47 -153 0
208 -2 -5 -140 146 -59 0
208 -2 -5 -45 48 -154 0
208 -2 -5 -140 147 -60 0
208 -2 -5 -45 49 -155 0
208 -2 -5 -140 148 -61 0
208 -2 -5 -45 50 -156 0
208 -2 -5 -45 51 -157 0
208 -2 -5 -45 52 -158 0
208 -2 -5 -45 53 -159 0
208 -2 -5 -45 54 -160 0
208 -2 -5 -46 62 -164 0
208 -2 -5 -141 161 -64 0
208 -2 -5 -46 63 -165 0
208 -2 -5 -141 162 -65 0
208 -2 -5 -46 64 -166 0
208 -2 -5 -141 163 -66 0
208 -2 -5 -46 65 -167 0
208 -2 -5 -141 164 -67 0
208 -2 -5 -46 66 -168 0
208 -2 -5 -141 165 -68 0
208 -2 -5 -46 67 -169 0
208 -2 -5 -141 166 -69 0
208 -2 -5 -46 68 -170 0
208 -2 -5 -141 167 -70 0
208 -3 -4 77 110 0
208 -3 -4 -77 -128 0
208 -3 -4 -110 -95 0
208 -3 -4 -110 -96 0
208 -3 -4 -110 -97 0
208 -3 -4 -77 95 -129 0
208 -3 -4 -110 128 -98 0
208 -3 -4 -77 96 -130 0
208 -3 -4 -110 129 -99 0
208 -3 -4 -77 97 -131 0
208 -3 -4 -110 130 -100 0
208 -3 -4 -77 98 -132 0
208 -3 -4 -110 131 -101 0
208 -3 -4 -77 99 -133 0
208 -3 -4 -110 132 -102 0
208 -3 -4 -77 100 -134 0
208 -3 -4 -110 133 -103 0
208 -3 -4 -77 101 -135 0
208 -3 -4 -110 134 -104 0
208 -3 -4 -77 102 -136 0
208 -3 -4 -77 103 -137 0
208 -3 -4 76 109 77 110 0
208 -3 -4 -76 -113 0
208 -3 -4 -76 -114 0
208 -3 -4 -76 -115 0
208 -3 -4 -76 -116 0
208 -3 -4 -76 -117 0
208 -3 -4 -76 -118 0
208 -3 -4 -76 -119 0
208 -3 -4 -76 -120 0
208 -3 -4 -76 -121 0
208 -3 -4 -109 -80 0
208 -3 -4 -109 -81 0
208 -3 -4 -109 -82 0
208 -3 -4 -109 -83 0
208 -3 -4 -109 -84 0
208 -3 -4 -109 -85 0
208 -3 -4 -109 -86 0
208 -3 -4 -109 -87 0
208 -3 -4 -77 -128 0
208 -3 -4 -110 -95 0
208 -3 -4 -110 -96 0
208 -3 -4 -110 -97 0
208 -3 -4 -76 80 -122 0
208 -3 -4 -109 113 -88 0
208 -3 -4 -76 81 -123 0
208 -3 -4 -109 114 -89 0
208 -3 -4 -76 82 -124 0
208 -3 -4 -109 115 -90 0
208 -3 -4 -76 83 -125 0
208 -3 -4 -109 116 -91 0
208 -3 -4 -76 84 -126 0
208 -3 -4 -109 117 -92 0
208 -3 -4 -76 85 -127 0
208 -3 -4 -109 118 -93 0
208 -3 -4 -77 95 -129 0
208 -3 -4 -110 128 -98 0
208 -3 -4 -77 96 -130 0
208 -3 -4 -110 129 -99 0
208 -3 -4 -77 97 -131 0
208 -3 -4 -110 130 -100 0
208 -3 -4 -77 98 -132 0
208 -3 -4 -110 131 -101 0
208 -3 -4 -77 99 -133 0
208 -3 -4 -110 132 -102 0
208 -3 -4 -77 100 -134 0
208 -3 -4 -110 133 -103 0
208 -3 -4 -77 101 -135 0
208 -3 -4 -110 134 -104 0
208 -3 -4 -77 102 -136 0
208 -3 -4 -77 103 -137 0
208 -3 -5 79 143 0
208 -3 -5 -79 -161 0
208 -3 -5 -143 -95 0
208 -3 -5 -143 -96 0
208 -3 -5 -79 95 -162 0
208 -3 -5 -143 161 -97 0
208 -3 -5 -79 96 -163 0
208 -3 -5 -143 162 -98 0
208 -3 -5 -79 97 -164 0
208 -3 -5 -143 163 -99 0
208 -3 -5 -79 98 -165 0
208 -3 -5 -143 164 -100 0
208 -3 -5 -79 99 -166 0
208 -3 -5 -143 165 -101 0
208 -3 -5 -79 100 -167 0
208 -3 -5 -143 166 -102 0
208 -3 -5 -79 101 -168 0
208 -3 -5 -143 167 -103 0
208 -3 -5 -79 102 -169 0
208 -3 -5 -143 168 -104 0
208 -3 -5 -79 103 -170 0
208 -3 -5 78 142 79 143 0
208 -3 -5 -78 -146 0
208 -3 -5 -78 -147 0
208 -3 -5 -78 -148 0
208 -3 -5 -78 -149 0
208 -3 -5 -78 -150 0
208 -3 -5 -78 -151 0
208 -3 -5 -78 -152 0
208 -3 -5 -78 -153 0
208 -3 -5 -78 -154 0
208 -3 -5 -142 -80 0
208 -3 -5 -142 -81 0
208 -3 -5 -142 -82 0
208 -3 -5 -142 -83 0
208 -3 -5 -142 -84 0
208 -3 -5 -142 -85 0
208 -3 -5 -142 -86 0
208 -3 -5 -142 -87 0
208 -3 -5 -142 -88 0
208 -3 -5 -142 -89 0
208 -3 -5 -142 -90 0
208 -3 -5 -142 -91 0
208 -3 -5 -79 -161 0
208 -3 -5 -143 -95 0
208 -3 -5 -143 -96 0
208 -3 -5 -78 80 -155 0
208 -3 -5 -142 146 -92 0
208 -3 -5 -78 81 -156 0
208 -3 -5 -142 147 -93 0
208 -3 -5 -78 82 -157 0
208 -3 -5 -142 148 -94 0
208 -3 -5 -78 83 -158 0
208 -3 -5 -78 84 -159 0
208 -3 -5 -78 85 -160 0
208 -3 -5 -79 95 -162 0
208 -3 -5 -143 161 -97 0
208 -3 -5 -79 96 -163 0
208 -3 -5 -143 162 -98 0
208 -3 -5 -79 97 -164 0
208 -3 -5 -143 163 -99 0
208 -3 -5 -79 98 -165 0
208 -3 -5 -143 164 -100 0
208 -3 -5 -79 99 -166 0
208 -3 -5 -143 165 -101 0
208 -3 -5 -79 100 -167 0
208 -3 -5 -143 166 -102 0
208 -3 -5 -79 101 -168 0
208 -3 -5 -143 167 -103 0
208 -3 -5 -79 102 -169 0
208 -3 -5 -143 168 -104 0
208 -3 -5 -79 103 -170 0
208 -4 -5 112 145 0
208 -4 -5 -112 -161 0
208 -4 -5 -112 -162 0
208 -4 -5 -112 -163 0
208 -4 -5 -145 -128 0
208 -4 -5 -145 -129 0
208 -4 -5 -112 128 -164 0
208 -4 -5 -145 161 -130 0
208 -4 -5 -112 129 -165 0
208 -4 -5 -145 162 -131 0
208 -4 -5 -112 130 -166 0
208 -4 -5 -145 163 -132 0
208 -4 -5 -112 131 -167 0
208 -4 -5 -145 164 -133 0
208 -4 -5 -112 132 -168 0
208 -4 -5 -145 165 -134 0
208 -4 -5 -112 133 -169 0
208 -4 -5 -145 166 -135 0
208 -4 -5 -112 134 -170 0
208 -4 -5 -145 167 -136 0
208 -4 -5 111 144 112 145 0
208 -4 -5 -111 -146 0
208 -4 -5 -111 -147 0
208 -4 -5 -111 -148 0
208 -4 -5 -111 -149 0
208 -4 -5 -111 -150 0
208 -4 -5 -111 -151 0
208 -4 -5 -111 -152 0
208 -4 -5 -111 -153 0
208 -4 -5 -144 -113 0
208 -4 -5 -144 -114 0
208 -4 -5 -144 -115 0
208 -4 -5 -144 -116 0
208 -4 -5 -144 -117 0
208 -4 -5 -144 -118 0
208 -4 -5 -144 -119 0
208 -4 -5 -144 -120 0
208 -4 -5 -144 -121 0
208 -4 -5 -144 -122 0
208 -4 -5 -144 -123 0
208 -4 -5 -144 -124 0
208 -4 -5 -112 -161 0
208 -4 -5 -112 -162 0
208 -4 -5 -112 -163 0
208 -4 -5 -145 -128 0
208 -4 -5 -145 -129 0
208 -4 -5 -111 113 -154 0
208 -4 -5 -144 146 -125 0
208 -4 -5 -111 114 -155 0
208 -4 -5 -144 147 -126 0
208 -4 -5 -111 115 -156 0
208 -4 -5 -144 148 -127 0
208 -4 -5 -111 116 -157 0
208 -4 -5 -111 117 -158 0
208 -4 -5 -111 118 -159 0
208 -4 -5 -111 119 -160 0
208 -4 -5 -112 128 -164 0
208 -4 -5 -145 161 -130 0
208 -4 -5 -112 129 -165 0
208 -4 -5 -145 162 -131 0
208 -4 -5 -112 130 -166 0
208 -4 -5 -145 163 -132 0
208 -4 -5 -112 131 -167 0
208 -4 -5 -145 164 -133 0
208 -4 -5 -112 132 -168 0
208 -4 -5 -145 165 -134 0
208 -4 -5 -112 133 -169 0
208 -4 -5 -145 166 -135 0
208 -4 -5 -112 134 -170 0
208 -4 -5 -145 167 -136 0
208 14 -1 0
208 15 -1 0
208 16 -1 0
208 17 -1 0
208 18 -1 0
208 19 -1 0
208 20 -1 0
208 21 -1 0
208 22 -1 0
208 23 -1 0
208 24 -1 0
208 25 -1 0
208 26 -1 0
208 27 -1 0
208 28 -1 0
208 37 -1 0
208 38 -1 0
208 55 -2 0
208 56 -2 0
208 57 -2 0
208 58 -2 0
208 59 -2 0
208 60 -2 0
208 61 -2 0
208 69 -2 0
208 70 -2 0
208 71 -2 0
208 86 -3 0
208 87 -3 0
208 88 -3 0
208 89 -3 0
208 90 -3 0
208 91 -3 0
208 92 -3 0
208 93 -3 0
208 94 -3 0
208 104 -3 0
208 120 -4 0
208 121 -4 0
208 122 -4 0
208 123 -4 0
208 124 -4 0
208 125 -4 0
208 126 -4 0
208 127 -4 0
208 135 -4 0
208 136 -4 0
208 137 -4 0
208 149 -5 0
208 150 -5 0
208 151 -5 0
208 152 -5 0
208 153 -5 0
208 154 -5 0
208 155 -5 0
208 156 -5 0
208 157 -5 0
208 158 -5 0
208 159 -5 0
208 160 -5 0
208 169 -5 0
208 170 -5 0
